c description: Random 3-CNF over 7 variables and 21 clauses
p cnf 7 21
3 -4 -5 0
2 3 -5 0
1 4 7 0
-2 4 -6 0
2 5 6 0
2 6 7 0
1 4 6 0
2 -3 -4 0
-5 -6 7 0
4 5 -7 0
-2 3 -5 0
-2 -5 6 0
-2 3 -4 0
1 -2 7 0
1 6 7 0
-3 -4 5 0
-2 -6 -7 0
-1 2 -3 0
1 -2 6 0
-3 -4 -6 0
-1 -2 -3 0